;; translated from ./ctigar/string_concat-noarr.c.vmt
;; original benchmark available at: https://es-static.fbk.eu/people/griggio/ic3ia/index.html
;; author: Alberto Griggio <griggio@fbk.eu>
(set-logic HORN)
(declare-fun state (Bool Bool Bool Bool Bool Int Int) Bool)
(assert (forall ((|.s.2| Bool) (|.s.0| Bool) (|.s.1| Bool) (|.s.0.next| Bool) (|.s.1.next| Bool) (|.s.2.next| Bool) (|.s.3.next| Bool) (|.s.4.next| Bool) (|main.i.next| Int) (|main.i| Int) (|main.j.next| Int) (|main.j| Int) (|.inputVar.0| Int) (|.s.4| Bool) (|.s.3| Bool)) (=> (let ((.def_20 (not .s.4)))
(let ((.def_17 (not .s.3)))
(let ((.def_14 (not .s.2)))
(let ((.def_10 (not .s.1)))
(let ((.def_12 (and .def_10 .s.0)))
(let ((.def_15 (and .def_12 .def_14)))
(let ((.def_18 (and .def_15 .def_17)))
(let ((.def_21 (and .def_18 .def_20)))
.def_21)))))))) (state |.s.1| |.s.0| |.s.2| |.s.3| |.s.4| |main.i| |main.j|))))
(assert (forall ((|.s.2| Bool) (|.s.0| Bool) (|.s.1| Bool) (|.s.0.next| Bool) (|.s.1.next| Bool) (|.s.2.next| Bool) (|.s.3.next| Bool) (|.s.4.next| Bool) (|main.i.next| Int) (|main.i| Int) (|main.j.next| Int) (|main.j| Int) (|.inputVar.0| Int) (|.s.4| Bool) (|.s.3| Bool)) (=> (and (state |.s.1| |.s.0| |.s.2| |.s.3| |.s.4| |main.i| |main.j|) (let ((.def_45 (not .s.0)))
(let ((.def_10 (not .s.1)))
(let ((.def_46 (and .def_10 .def_45)))
(let ((.def_14 (not .s.2)))
(let ((.def_47 (and .def_14 .def_46)))
(let ((.def_17 (not .s.3)))
(let ((.def_48 (and .def_17 .def_47)))
(let ((.def_20 (not .s.4)))
(let ((.def_239 (and .def_20 .def_48)))
(let ((.def_240 (not .def_239)))
(let ((.def_52 (not .s.0.next)))
(let ((.def_25 (not .s.1.next)))
(let ((.def_53 (and .def_25 .def_52)))
(let ((.def_29 (not .s.2.next)))
(let ((.def_54 (and .def_29 .def_53)))
(let ((.def_32 (not .s.3.next)))
(let ((.def_55 (and .def_32 .def_54)))
(let ((.def_51 (not .s.4.next)))
(let ((.def_56 (and .def_51 .def_55)))
(let ((.def_38 (= main.i main.i.next)))
(let ((.def_57 (and .def_38 .def_56)))
(let ((.def_42 (= main.j main.j.next)))
(let ((.def_58 (and .def_42 .def_57)))
(let ((.def_241 (or .def_58 .def_240)))
(let ((.def_235 (= main.i.next 0)))
(let ((.def_101 (and .s.1.next .def_52)))
(let ((.def_143 (and .def_29 .def_101)))
(let ((.def_205 (and .def_32 .def_143)))
(let ((.def_206 (and .def_51 .def_205)))
(let ((.def_236 (and .def_206 .def_235)))
(let ((.def_237 (and .def_42 .def_236)))
(let ((.def_12 (and .def_10 .s.0)))
(let ((.def_15 (and .def_12 .def_14)))
(let ((.def_18 (and .def_15 .def_17)))
(let ((.def_21 (and .def_18 .def_20)))
(let ((.def_234 (not .def_21)))
(let ((.def_238 (or .def_234 .def_237)))
(let ((.def_242 (and .def_238 .def_241)))
(let ((.def_27 (and .def_25 .s.0.next)))
(let ((.def_110 (and .def_27 .s.2.next)))
(let ((.def_229 (and .def_32 .def_110)))
(let ((.def_230 (and .def_51 .def_229)))
(let ((.def_231 (and .def_38 .def_230)))
(let ((.def_232 (and .def_42 .def_231)))
(let ((.def_69 (and .s.1 .def_45)))
(let ((.def_125 (and .def_14 .def_69)))
(let ((.def_218 (and .def_17 .def_125)))
(let ((.def_219 (and .def_20 .def_218)))
(let ((.def_156 (= .inputVar.0 0)))
(let ((.def_164 (not .def_156)))
(let ((.def_227 (and .def_164 .def_219)))
(let ((.def_228 (not .def_227)))
(let ((.def_233 (or .def_228 .def_232)))
(let ((.def_243 (and .def_233 .def_242)))
(let ((.def_78 (and .s.1.next .s.0.next)))
(let ((.def_134 (and .def_29 .def_78)))
(let ((.def_222 (and .def_32 .def_134)))
(let ((.def_223 (and .def_51 .def_222)))
(let ((.def_224 (and .def_38 .def_223)))
(let ((.def_225 (and .def_42 .def_224)))
(let ((.def_220 (and .def_156 .def_219)))
(let ((.def_221 (not .def_220)))
(let ((.def_226 (or .def_221 .def_225)))
(let ((.def_244 (and .def_226 .def_243)))
(let ((.def_167 (and .s.2.next .def_53)))
(let ((.def_213 (and .def_32 .def_167)))
(let ((.def_214 (and .def_51 .def_213)))
(let ((.def_146 (* (- 1) main.i.next)))
(let ((.def_147 (+ main.i .def_146)))
(let ((.def_148 (= .def_147 (- 1))))
(let ((.def_215 (and .def_148 .def_214)))
(let ((.def_216 (and .def_42 .def_215)))
(let ((.def_60 (and .s.1 .s.0)))
(let ((.def_116 (and .def_14 .def_60)))
(let ((.def_210 (and .def_17 .def_116)))
(let ((.def_211 (and .def_20 .def_210)))
(let ((.def_212 (not .def_211)))
(let ((.def_217 (or .def_212 .def_216)))
(let ((.def_245 (and .def_217 .def_244)))
(let ((.def_207 (and .def_38 .def_206)))
(let ((.def_208 (and .def_42 .def_207)))
(let ((.def_93 (and .s.2 .def_46)))
(let ((.def_202 (and .def_17 .def_93)))
(let ((.def_203 (and .def_20 .def_202)))
(let ((.def_204 (not .def_203)))
(let ((.def_209 (or .def_204 .def_208)))
(let ((.def_246 (and .def_209 .def_245)))
(let ((.def_79 (and .s.2.next .def_78)))
(let ((.def_197 (and .def_32 .def_79)))
(let ((.def_198 (and .def_51 .def_197)))
(let ((.def_199 (and .def_38 .def_198)))
(let ((.def_200 (and .def_42 .def_199)))
(let ((.def_186 (<= 100 main.i)))
(let ((.def_194 (not .def_186)))
(let ((.def_88 (and .def_12 .s.2)))
(let ((.def_184 (and .def_17 .def_88)))
(let ((.def_185 (and .def_20 .def_184)))
(let ((.def_195 (and .def_185 .def_194)))
(let ((.def_196 (not .def_195)))
(let ((.def_201 (or .def_196 .def_200)))
(let ((.def_247 (and .def_201 .def_246)))
(let ((.def_102 (and .s.2.next .def_101)))
(let ((.def_189 (and .def_32 .def_102)))
(let ((.def_190 (and .def_51 .def_189)))
(let ((.def_191 (and .def_38 .def_190)))
(let ((.def_192 (and .def_42 .def_191)))
(let ((.def_187 (and .def_185 .def_186)))
(let ((.def_188 (not .def_187)))
(let ((.def_193 (or .def_188 .def_192)))
(let ((.def_248 (and .def_193 .def_247)))
(let ((.def_70 (and .s.2 .def_69)))
(let ((.def_180 (and .def_17 .def_70)))
(let ((.def_181 (and .def_20 .def_180)))
(let ((.def_182 (not .def_181)))
(let ((.def_183 (or .def_58 .def_182)))
(let ((.def_249 (and .def_183 .def_248)))
(let ((.def_176 (= main.j.next 0)))
(let ((.def_120 (and .s.3.next .def_54)))
(let ((.def_121 (and .def_51 .def_120)))
(let ((.def_177 (and .def_121 .def_176)))
(let ((.def_178 (and .def_38 .def_177)))
(let ((.def_61 (and .s.2 .def_60)))
(let ((.def_173 (and .def_17 .def_61)))
(let ((.def_174 (and .def_20 .def_173)))
(let ((.def_175 (not .def_174)))
(let ((.def_179 (or .def_175 .def_178)))
(let ((.def_250 (and .def_179 .def_249)))
(let ((.def_168 (and .s.3.next .def_167)))
(let ((.def_169 (and .def_51 .def_168)))
(let ((.def_170 (and .def_38 .def_169)))
(let ((.def_171 (and .def_42 .def_170)))
(let ((.def_152 (and .s.3 .def_47)))
(let ((.def_153 (and .def_20 .def_152)))
(let ((.def_165 (and .def_153 .def_164)))
(let ((.def_166 (not .def_165)))
(let ((.def_172 (or .def_166 .def_171)))
(let ((.def_251 (and .def_172 .def_250)))
(let ((.def_30 (and .def_27 .def_29)))
(let ((.def_159 (and .def_30 .s.3.next)))
(let ((.def_160 (and .def_51 .def_159)))
(let ((.def_161 (and .def_38 .def_160)))
(let ((.def_162 (and .def_42 .def_161)))
(let ((.def_157 (and .def_153 .def_156)))
(let ((.def_158 (not .def_157)))
(let ((.def_163 (or .def_158 .def_162)))
(let ((.def_252 (and .def_163 .def_251)))
(let ((.def_144 (and .s.3.next .def_143)))
(let ((.def_145 (and .def_51 .def_144)))
(let ((.def_149 (and .def_145 .def_148)))
(let ((.def_150 (and .def_42 .def_149)))
(let ((.def_140 (and .def_15 .s.3)))
(let ((.def_141 (and .def_20 .def_140)))
(let ((.def_142 (not .def_141)))
(let ((.def_151 (or .def_142 .def_150)))
(let ((.def_253 (and .def_151 .def_252)))
(let ((.def_135 (and .s.3.next .def_134)))
(let ((.def_136 (and .def_51 .def_135)))
(let ((.def_131 (* (- 1) main.j.next)))
(let ((.def_132 (+ main.j .def_131)))
(let ((.def_133 (= .def_132 (- 1))))
(let ((.def_137 (and .def_133 .def_136)))
(let ((.def_138 (and .def_38 .def_137)))
(let ((.def_126 (and .s.3 .def_125)))
(let ((.def_127 (and .def_20 .def_126)))
(let ((.def_128 (not .def_127)))
(let ((.def_139 (or .def_128 .def_138)))
(let ((.def_254 (and .def_139 .def_253)))
(let ((.def_122 (and .def_38 .def_121)))
(let ((.def_123 (and .def_42 .def_122)))
(let ((.def_117 (and .s.3 .def_116)))
(let ((.def_118 (and .def_20 .def_117)))
(let ((.def_119 (not .def_118)))
(let ((.def_124 (or .def_119 .def_123)))
(let ((.def_255 (and .def_124 .def_254)))
(let ((.def_111 (and .s.3.next .def_110)))
(let ((.def_112 (and .def_51 .def_111)))
(let ((.def_113 (and .def_38 .def_112)))
(let ((.def_114 (and .def_42 .def_113)))
(let ((.def_97 (<= 100 main.j)))
(let ((.def_94 (and .s.3 .def_93)))
(let ((.def_95 (and .def_20 .def_94)))
(let ((.def_108 (and .def_95 .def_97)))
(let ((.def_109 (not .def_108)))
(let ((.def_115 (or .def_109 .def_114)))
(let ((.def_256 (and .def_115 .def_255)))
(let ((.def_103 (and .s.3.next .def_102)))
(let ((.def_104 (and .def_51 .def_103)))
(let ((.def_105 (and .def_38 .def_104)))
(let ((.def_106 (and .def_42 .def_105)))
(let ((.def_98 (not .def_97)))
(let ((.def_99 (and .def_95 .def_98)))
(let ((.def_100 (not .def_99)))
(let ((.def_107 (or .def_100 .def_106)))
(let ((.def_257 (and .def_107 .def_256)))
(let ((.def_89 (and .s.3 .def_88)))
(let ((.def_90 (and .def_20 .def_89)))
(let ((.def_91 (not .def_90)))
(let ((.def_92 (or .def_58 .def_91)))
(let ((.def_258 (and .def_92 .def_257)))
(let ((.def_74 (<= 200 main.i)))
(let ((.def_71 (and .s.3 .def_70)))
(let ((.def_72 (and .def_20 .def_71)))
(let ((.def_85 (and .def_72 .def_74)))
(let ((.def_86 (not .def_85)))
(let ((.def_33 (and .def_30 .def_32)))
(let ((.def_35 (and .def_33 .s.4.next)))
(let ((.def_39 (and .def_35 .def_38)))
(let ((.def_43 (and .def_39 .def_42)))
(let ((.def_87 (or .def_43 .def_86)))
(let ((.def_259 (and .def_87 .def_258)))
(let ((.def_80 (and .s.3.next .def_79)))
(let ((.def_81 (and .def_51 .def_80)))
(let ((.def_82 (and .def_38 .def_81)))
(let ((.def_83 (and .def_42 .def_82)))
(let ((.def_75 (not .def_74)))
(let ((.def_76 (and .def_72 .def_75)))
(let ((.def_77 (not .def_76)))
(let ((.def_84 (or .def_77 .def_83)))
(let ((.def_260 (and .def_84 .def_259)))
(let ((.def_65 (and .s.4.next .def_55)))
(let ((.def_66 (and .def_38 .def_65)))
(let ((.def_67 (and .def_42 .def_66)))
(let ((.def_62 (and .s.3 .def_61)))
(let ((.def_63 (and .def_20 .def_62)))
(let ((.def_64 (not .def_63)))
(let ((.def_68 (or .def_64 .def_67)))
(let ((.def_261 (and .def_68 .def_260)))
(let ((.def_49 (and .s.4 .def_48)))
(let ((.def_50 (not .def_49)))
(let ((.def_59 (or .def_50 .def_58)))
(let ((.def_262 (and .def_59 .def_261)))
(let ((.def_22 (and .def_18 .s.4)))
(let ((.def_23 (not .def_22)))
(let ((.def_44 (or .def_23 .def_43)))
(let ((.def_263 (and .def_44 .def_262)))
.def_263)))))))))))))))))))))))))))))))))))))))))))))))))))))))))))))))))))))))))))))))))))))))))))))))))))))))))))))))))))))))))))))))))))))))))))))))))))))))))))))))))))))))))))))))))))))))))))))))))))))))))))))))))))))))))))))))))))))))))))) (state |.s.1.next| |.s.0.next| |.s.2.next| |.s.3.next| |.s.4.next| |main.i.next| |main.j.next|))))
(assert (forall ((|.s.2| Bool) (|.s.0| Bool) (|.s.1| Bool) (|.s.0.next| Bool) (|.s.1.next| Bool) (|.s.2.next| Bool) (|.s.3.next| Bool) (|.s.4.next| Bool) (|main.i.next| Int) (|main.i| Int) (|main.j.next| Int) (|main.j| Int) (|.inputVar.0| Int) (|.s.4| Bool) (|.s.3| Bool)) (=> (state |.s.1| |.s.0| |.s.2| |.s.3| |.s.4| |main.i| |main.j|) (let ((.def_17 (not .s.3)))
(let ((.def_14 (not .s.2)))
(let ((.def_10 (not .s.1)))
(let ((.def_12 (and .def_10 .s.0)))
(let ((.def_15 (and .def_12 .def_14)))
(let ((.def_18 (and .def_15 .def_17)))
(let ((.def_22 (and .def_18 .s.4)))
(let ((.def_23 (not .def_22)))
.def_23)))))))))))
(check-sat)
